(set-option :produce-models true)
(set-logic QF_LIA)
(declare-fun W_0_1 () Int)
(declare-fun P_0_1 () Int)
(assert (and (>= W_0_1 0) (< W_0_1 1)))
(assert (and (>= P_0_1 0) (< P_0_1 1)))
(assert (= (ite (= W_0_1 0) 1 0) 1))
(assert (= (ite (= W_0_1 0) 1 0) 1))
(assert (= (ite (= W_0_1 0) 1 0) 1))
(assert (= (ite (and (= W_0_1 0) (= P_0_1 0)) 1 0) 1))
(assert (<= (ite (= P_0_1 0) 1 0) 2))
(assert (<= (ite (= P_0_1 0) 1 0) 2))
(check-sat)
(get-model)